g3 0 1 0	# problem eigencco
 30 15 1 0 15	# vars, constraints, objectives, ranges, eqns
 15 1	# nonlinear constraints, objectives
 0 0	# network constraints: nonlinear, linear
 25 30 25	# nonlinear vars in constraints, objectives, both
 0 0 0 1	# linear network variables; functions; arith, flags
 0 0 0 0 0	# discrete variables: binary, integer, nonlinear (b,c,o)
 125 30	# nonzeros in Jacobian, gradients
 0 0	# max name lengths: constraints, variables
 0 0 0 0 0	# common exprs: b,c,o,c1,o1
b
3
3
3
3
3
3
3
3
3
3
3
3
3
3
3
3
3
3
3
3
3
3
3
3
3
3
3
3
3
3
x30
0 1
1 0
2 0
3 0
4 0
5 0
6 1
7 0
8 0
9 0
10 0
11 0
12 1
13 0
14 0
15 0
16 0
17 0
18 1
19 0
20 0
21 0
22 0
23 0
24 1
25 1
26 1
27 1
28 1
29 1
r
4 0
4 0
4 0
4 0
4 0
4 0
4 0
4 0
4 0
4 0
4 1
4 1
4 1
4 1
4 1
C0
o54
5
o2
v0
v1
o2
v5
v6
o2
v10
v11
o2
v15
v16
o2
v20
v21
C1
o54
5
o2
v0
v2
o2
v5
v7
o2
v10
v12
o2
v15
v17
o2
v20
v22
C2
o54
5
o2
v1
v2
o2
v6
v7
o2
v11
v12
o2
v16
v17
o2
v21
v22
C3
o54
5
o2
v0
v3
o2
v5
v8
o2
v10
v13
o2
v15
v18
o2
v20
v23
C4
o54
5
o2
v1
v3
o2
v6
v8
o2
v11
v13
o2
v16
v18
o2
v21
v23
C5
o54
5
o2
v2
v3
o2
v7
v8
o2
v12
v13
o2
v17
v18
o2
v22
v23
C6
o54
5
o2
v0
v4
o2
v5
v9
o2
v10
v14
o2
v15
v19
o2
v20
v24
C7
o54
5
o2
v1
v4
o2
v6
v9
o2
v11
v14
o2
v16
v19
o2
v21
v24
C8
o54
5
o2
v2
v4
o2
v7
v9
o2
v12
v14
o2
v17
v19
o2
v22
v24
C9
o54
5
o2
v3
v4
o2
v8
v9
o2
v13
v14
o2
v18
v19
o2
v23
v24
C10
o54
5
o2
v0
v0
o2
v5
v5
o2
v10
v10
o2
v15
v15
o2
v20
v20
C11
o54
5
o2
v1
v1
o2
v6
v6
o2
v11
v11
o2
v16
v16
o2
v21
v21
C12
o54
5
o2
v2
v2
o2
v7
v7
o2
v12
v12
o2
v17
v17
o2
v22
v22
C13
o54
5
o2
v3
v3
o2
v8
v8
o2
v13
v13
o2
v18
v18
o2
v23
v23
C14
o54
5
o2
v4
v4
o2
v9
v9
o2
v14
v14
o2
v19
v19
o2
v24
v24
O0 0
o54
15
o5
o0
n-2
o54
5
o2
o2
v0
v0
v25
o2
o2
v5
v5
v26
o2
o2
v10
v10
v27
o2
o2
v15
v15
v28
o2
o2
v20
v20
v29
n2
o5
o0
n-1
o54
5
o2
o2
v0
v1
v25
o2
o2
v5
v6
v26
o2
o2
v10
v11
v27
o2
o2
v15
v16
v28
o2
o2
v20
v21
v29
n2
o5
o0
n-1
o54
5
o2
o2
v1
v1
v25
o2
o2
v6
v6
v26
o2
o2
v11
v11
v27
o2
o2
v16
v16
v28
o2
o2
v21
v21
v29
n2
o5
o54
5
o2
o2
v0
v2
v25
o2
o2
v5
v7
v26
o2
o2
v10
v12
v27
o2
o2
v15
v17
v28
o2
o2
v20
v22
v29
n2
o5
o0
n-1
o54
5
o2
o2
v1
v2
v25
o2
o2
v6
v7
v26
o2
o2
v11
v12
v27
o2
o2
v16
v17
v28
o2
o2
v21
v22
v29
n2
o5
o54
5
o2
o2
v2
v2
v25
o2
o2
v7
v7
v26
o2
o2
v12
v12
v27
o2
o2
v17
v17
v28
o2
o2
v22
v22
v29
n2
o5
o54
5
o2
o2
v0
v3
v25
o2
o2
v5
v8
v26
o2
o2
v10
v13
v27
o2
o2
v15
v18
v28
o2
o2
v20
v23
v29
n2
o5
o54
5
o2
o2
v1
v3
v25
o2
o2
v6
v8
v26
o2
o2
v11
v13
v27
o2
o2
v16
v18
v28
o2
o2
v21
v23
v29
n2
o5
o0
n-1
o54
5
o2
o2
v2
v3
v25
o2
o2
v7
v8
v26
o2
o2
v12
v13
v27
o2
o2
v17
v18
v28
o2
o2
v22
v23
v29
n2
o5
o0
n1
o54
5
o2
o2
v3
v3
v25
o2
o2
v8
v8
v26
o2
o2
v13
v13
v27
o2
o2
v18
v18
v28
o2
o2
v23
v23
v29
n2
o5
o54
5
o2
o2
v0
v4
v25
o2
o2
v5
v9
v26
o2
o2
v10
v14
v27
o2
o2
v15
v19
v28
o2
o2
v20
v24
v29
n2
o5
o54
5
o2
o2
v1
v4
v25
o2
o2
v6
v9
v26
o2
o2
v11
v14
v27
o2
o2
v16
v19
v28
o2
o2
v21
v24
v29
n2
o5
o54
5
o2
o2
v2
v4
v25
o2
o2
v7
v9
v26
o2
o2
v12
v14
v27
o2
o2
v17
v19
v28
o2
o2
v22
v24
v29
n2
o5
o0
n-1
o54
5
o2
o2
v3
v4
v25
o2
o2
v8
v9
v26
o2
o2
v13
v14
v27
o2
o2
v18
v19
v28
o2
o2
v23
v24
v29
n2
o5
o0
n2
o54
5
o2
o2
v4
v4
v25
o2
o2
v9
v9
v26
o2
o2
v14
v14
v27
o2
o2
v19
v19
v28
o2
o2
v24
v24
v29
n2
k29
5
10
15
20
25
30
35
40
45
50
55
60
65
70
75
80
85
90
95
100
105
110
115
120
125
125
125
125
125
J0 10
0 0
1 0
5 0
6 0
10 0
11 0
15 0
16 0
20 0
21 0
J1 10
0 0
2 0
5 0
7 0
10 0
12 0
15 0
17 0
20 0
22 0
J2 10
1 0
2 0
6 0
7 0
11 0
12 0
16 0
17 0
21 0
22 0
J3 10
0 0
3 0
5 0
8 0
10 0
13 0
15 0
18 0
20 0
23 0
J4 10
1 0
3 0
6 0
8 0
11 0
13 0
16 0
18 0
21 0
23 0
J5 10
2 0
3 0
7 0
8 0
12 0
13 0
17 0
18 0
22 0
23 0
J6 10
0 0
4 0
5 0
9 0
10 0
14 0
15 0
19 0
20 0
24 0
J7 10
1 0
4 0
6 0
9 0
11 0
14 0
16 0
19 0
21 0
24 0
J8 10
2 0
4 0
7 0
9 0
12 0
14 0
17 0
19 0
22 0
24 0
J9 10
3 0
4 0
8 0
9 0
13 0
14 0
18 0
19 0
23 0
24 0
J10 5
0 0
5 0
10 0
15 0
20 0
J11 5
1 0
6 0
11 0
16 0
21 0
J12 5
2 0
7 0
12 0
17 0
22 0
J13 5
3 0
8 0
13 0
18 0
23 0
J14 5
4 0
9 0
14 0
19 0
24 0
G0 30
0 0
1 0
2 0
3 0
4 0
5 0
6 0
7 0
8 0
9 0
10 0
11 0
12 0
13 0
14 0
15 0
16 0
17 0
18 0
19 0
20 0
21 0
22 0
23 0
24 0
25 0
26 0
27 0
28 0
29 0
